40
2 0 7
2 1 4
3 1 8
4 0 8
4 2 12
5 3 7
6 0 8
6 2 11
6 3 3
6 4 3
6 5 4
7 3 10
7 5 6
7 6 10
8 1 2
8 3 2
8 4 2
8 5 7
8 7 7
9 2 4
9 3 8
9 5 9
9 7 11
9 8 5
10 0 10
10 1 12
10 3 9
10 4 11
10 5 11
10 9 7
11 1 1
11 5 11
11 9 7
12 3 12
12 4 7
12 6 5
12 8 1
12 11 6
13 1 7
13 3 12
13 8 2
13 9 4
13 10 11
13 12 6
14 1 1
14 3 10
14 4 3
14 5 10
14 9 12
14 10 7
14 11 5
15 0 2
15 2 7
15 5 1
15 9 5
15 10 4
15 11 8
15 12 7
16 2 3
16 3 7
16 4 11
16 5 4
16 10 6
16 11 9
16 13 9
17 1 1
17 3 10
17 4 12
17 7 6
17 8 1
17 9 4
17 10 1
17 11 4
17 13 6
17 15 10
17 16 1
18 0 3
18 1 9
18 2 9
18 3 6
18 4 1
18 5 11
18 6 9
18 7 9
18 8 1
18 9 9
18 12 5
18 16 4
18 17 3
19 0 10
19 1 1
19 2 2
19 3 11
19 5 5
19 7 8
19 9 2
19 11 10
19 12 1
19 18 5
20 0 5
20 3 8
20 4 2
20 8 3
20 10 6
20 13 2
20 16 8
20 18 4
21 0 10
21 4 8
21 6 7
21 7 9
21 14 4
21 15 3
21 16 5
21 17 4
21 20 4
22 1 5
22 3 5
22 6 5
22 8 5
22 10 6
22 15 9
22 16 5
22 17 10
22 18 5
22 21 5
23 2 5
23 5 12
23 7 4
23 8 7
23 9 7
23 12 8
23 17 3
23 18 9
23 20 7
24 0 1
24 1 12
24 3 7
24 5 10
24 13 2
24 14 12
24 15 12
24 16 3
24 17 8
24 19 1
24 23 7
25 4 7
25 5 9
25 6 12
25 7 4
25 8 6
25 9 1
25 10 7
25 11 6
25 14 9
25 21 2
25 23 7
26 0 5
26 1 10
26 2 2
26 3 5
26 6 5
26 8 9
26 9 12
26 10 2
26 13 6
26 15 10
26 17 12
26 18 7
26 20 9
26 21 8
27 0 11
27 6 11
27 9 7
27 11 6
27 13 5
27 15 9
27 17 9
27 19 6
27 21 7
27 22 9
27 23 5
27 24 11
27 26 1
28 1 4
28 2 11
28 3 1
28 5 8
28 6 8
28 12 9
28 15 4
28 17 10
28 18 8
28 21 6
28 22 11
28 23 4
28 24 2
28 25 11
28 27 12
29 0 1
29 2 11
29 3 6
29 6 3
29 7 12
29 8 10
29 10 12
29 11 2
29 12 11
29 15 4
29 16 11
29 18 9
29 23 10
29 25 12
29 26 8
29 27 8
29 28 1
30 1 9
30 2 9
30 3 5
30 6 11
30 12 1
30 13 4
30 14 9
30 16 7
30 18 8
30 21 9
30 22 6
30 23 12
30 24 10
30 27 8
30 29 11
31 1 7
31 2 7
31 4 1
31 5 7
31 6 10
31 8 1
31 9 7
31 10 8
31 11 5
31 12 3
31 14 10
31 15 2
31 16 4
31 17 9
31 19 2
31 22 12
31 23 6
31 25 9
31 26 8
31 27 1
31 28 5
32 0 5
32 1 2
32 6 11
32 7 6
32 10 1
32 11 1
32 12 1
32 14 5
32 19 11
32 20 10
32 23 11
32 24 11
32 29 6
33 3 5
33 7 8
33 9 8
33 10 6
33 11 7
33 12 10
33 15 3
33 16 7
33 17 8
33 19 12
33 21 1
33 22 2
33 23 10
33 24 3
33 26 7
33 28 4
33 29 5
34 0 4
34 1 8
34 3 12
34 4 5
34 8 10
34 9 7
34 11 10
34 15 1
34 16 5
34 17 4
34 18 2
34 20 3
34 22 7
34 24 11
34 25 11
34 27 2
34 28 6
34 31 2
35 0 1
35 2 3
35 3 11
35 5 1
35 7 8
35 8 9
35 9 8
35 10 10
35 16 4
35 22 6
35 23 6
35 29 3
35 32 6
35 33 4
35 34 11
36 1 7
36 4 3
36 6 1
36 7 9
36 9 3
36 12 8
36 15 4
36 17 8
36 18 6
36 20 9
36 23 1
36 24 11
36 25 1
36 27 10
36 29 9
36 31 5
36 32 1
36 33 2
37 3 10
37 4 10
37 5 7
37 9 2
37 10 5
37 12 1
37 13 10
37 20 11
37 22 4
37 23 3
37 24 5
37 28 7
37 31 1
37 32 9
37 33 4
37 34 9
37 36 2
38 1 2
38 2 10
38 4 4
38 6 7
38 7 3
38 17 3
38 18 6
38 19 12
38 21 5
38 23 7
38 25 11
38 26 5
38 28 4
38 29 6
38 31 10
38 34 6
38 35 6
38 36 11
38 37 1
39 2 10
39 4 4
39 5 4
39 6 12
39 10 9
39 11 5
39 13 1
39 14 12
39 16 8
39 17 3
39 19 10
39 22 9
39 24 12
39 30 1
39 34 5
39 35 7
39 36 10
